NAME : POMORSKIE-n10
COMMENT : Auto generated by mgrVRP
TYPE : CVRP
DIMENSION : 10
EDGE_WEIGHT_TYPE : EUC_2D
CAPACITY : 200.0
NODE_COORD_SECTION
1 53.56203896276212 17.05255397025947
2 54.77791133464594 18.10104314212246
3 53.79818174206562 17.989523055227757
4 53.81843508748297 17.629552011115393
5 54.12033119505853 17.846738584613387
6 54.410317153603884 18.533156619774665
7 54.17089624356759 18.422881636794486
8 54.03700209535239 18.325993525028895
9 54.04902095898409 17.87402454008861
10 53.579584657115504 19.018215976064567
11 53.80827825805908 19.080861998140563
DEMAND_SECTION
1 0
2 52.0
3 42.0
4 56.0
5 57.0
6 53.0
7 57.0
8 32.0
9 53.0
10 55.0
11 33.0
DEPOT_SECTION
1
-1
EOF
